data/processed_heuristic-threshold/instances/1/8/ds_604_courier_949/pairwise.tsp
NAME: ds_604_courier_949
TYPE: TSP
COMMENT: nil
DIMENSION: 9
EDGE_WEIGHT_TYPE: EXPLICIT
EDGE_WEIGHT_FORMAT: FULL_MATRIX
EDGE_WEIGHT_SECTION
9999 2358 3585 1913 2020 26 2296 2279 2359 
2358 9999 1742 485 341 2343 67 274 104 
3585 1742 9999 1888 1908 3562 1754 1584 1832 
1913 485 1888 9999 177 1896 419 369 531 
2020 341 1908 177 9999 2004 277 327 367 
26 2343 3562 1896 2004 9999 2281 2262 2345 
2296 67 1754 419 277 2281 9999 235 143 
2279 274 1584 369 327 2262 235 9999 373 
2359 104 1832 531 367 2345 143 373 9999 
