data/processed_heuristic-threshold/instances/1/8/ds_604_courier_949/pairwise.sol
9
0 5 2 7 6 1 8 4 3 
